n=150;
k_min=3;
k_max=3;
M=[| 346, 500, 153
 | 363, 477, 159
 | 355, 491, 153
 | 362, 490, 147
 | 348, 491, 160
 | 347, 474, 177
 | 357, 485, 156
 | 355, 488, 156
 | 365, 477, 156
 | 363, 477, 159
 | 346, 480, 172
 | 355, 500, 144
 | 361, 481, 157
 | 358, 473, 168
 | 332, 472, 194
 | 332, 464, 203
 | 333, 500, 166
 | 347, 500, 152
 | 346, 466, 186
 | 342, 500, 157
 | 350, 500, 149
 | 348, 490, 160
 | 350, 469, 180
 | 368, 471, 160
 | 368, 479, 152
 | 369, 470, 159
 | 360, 482, 156
 | 350, 490, 159
 | 350, 490, 159
 | 364, 485, 150
 | 366, 480, 152
 | 353, 481, 165
 | 340, 477, 181
 | 334, 477, 188
 | 363, 477, 159
 | 355, 477, 167
 | 339, 500, 160
 | 363, 477, 159
 | 361, 481, 156
 | 353, 490, 155
 | 349, 491, 159
 | 375, 447, 176
 | 357, 486, 156
 | 361, 474, 163
 | 358, 471, 169
 | 364, 480, 155
 | 346, 490, 162
 | 355, 500, 144
 | 346, 484, 169
 | 355, 485, 158
 | 474, 156, 369
 | 460, 196, 342
 | 500, 119, 380
 | 500, 246, 253
 | 500, 157, 342
 | 500, 205, 294
 | 455, 186, 358
 | 500, 316, 183
 | 476, 177, 345
 | 456, 282, 261
 | 464, 309, 226
 | 465, 233, 300
 | 450, 266, 283
 | 500, 169, 330
 | 454, 299, 245
 | 460, 198, 341
 | 473, 219, 307
 | 458, 263, 277
 | 499, 181, 318
 | 471, 272, 255
 | 452, 192, 354
 | 450, 256, 293
 | 458, 174, 367
 | 479, 191, 329
 | 463, 216, 320
 | 469, 194, 335
 | 467, 158, 373
 | 469, 131, 398
 | 476, 200, 322
 | 441, 316, 242
 | 473, 280, 246
 | 462, 295, 242
 | 461, 270, 268
 | 456, 171, 371
 | 464, 232, 303
 | 448, 218, 332
 | 472, 161, 365
 | 476, 205, 318
 | 500, 240, 259
 | 482, 256, 261
 | 472, 238, 289
 | 486, 186, 327
 | 461, 262, 276
 | 487, 317, 194
 | 471, 246, 282
 | 483, 241, 275
 | 483, 237, 279
 | 460, 224, 314
 | 467, 344, 188
 | 479, 246, 274
 | 444, 127, 428
 | 476, 160, 362
 | 418, 81, 500
 | 465, 115, 419
 | 452, 99, 447
 | 392, 156, 451
 | 435, 258, 306
 | 403, 127, 469
 | 448, 111, 440
 | 416, 135, 447
 | 465, 129, 405
 | 500, 96, 403
 | 452, 93, 454
 | 500, 154, 345
 | 500, 138, 361
 | 500, 91, 408
 | 464, 107, 428
 | 388, 173, 437
 | 388, 177, 434
 | 455, 187, 356
 | 444, 89, 465
 | 471, 182, 345
 | 389, 165, 444
 | 461, 160, 377
 | 451, 95, 452
 | 403, 96, 500
 | 460, 171, 367
 | 458, 170, 370
 | 466, 102, 430
 | 420, 108, 471
 | 406, 126, 466
 | 385, 173, 440
 | 462, 106, 431
 | 457, 158, 383
 | 446, 159, 393
 | 398, 144, 456
 | 467, 115, 416
 | 458, 118, 422
 | 460, 180, 358
 | 449, 99, 450
 | 460, 90, 448
 | 451, 123, 424
 | 476, 160, 362
 | 440, 93, 465
 | 454, 101, 444
 | 466, 109, 424
 | 466, 150, 382
 | 467, 118, 413
 | 473, 123, 402
 | 450, 175, 374 |];
 P=[2, 2, 2, 2, 2, 2, 2, 2, 2, 2, 2, 2, 2, 2, 2, 2, 2, 2, 2, 2, 2, 2, 2, 2, 2, 2, 2, 2, 2, 2, 2, 2, 2, 2, 2, 2, 2, 2, 2, 2, 2, 2, 2, 2, 2, 2, 2, 2, 2, 2, 1, 1, 1, 1, 1, 1, 1, 1, 1, 1, 1, 1, 1, 1, 1, 1, 1, 1, 1, 1, 1, 1, 1, 1, 1, 1, 1, 1, 1, 1, 1, 1, 1, 1, 1, 1, 1, 1, 1, 1, 1, 1, 1, 1, 1, 1, 1, 1, 1, 1, 1, 1, 3, 1, 1, 3, 1, 3, 1, 3, 1, 1, 1, 1, 1, 1, 1, 3, 3, 1, 1, 1, 3, 1, 1, 3, 1, 1, 1, 3, 3, 3, 1, 1, 1, 3, 1, 1, 1, 1, 1, 1, 1, 1, 1, 1, 1, 1, 1, 1 ];